\* ODT *\
Minimize
OBJ: X0 + X1 + X10 + X11 + X12 + X13 + X14 + X15 + X16 + X17 + X18 + X19 + X2
 + X3 + X4 + X5 + X6 + X7 + X8 + X9
Subject To
Cover_0: X13 + X8 >= 1
Cover_1: X12 + X13 + X6 + X7 + X8 + X9 >= 1
Cover_10: X16 >= 1
Cover_11: X16 + X2 + X6 + X7 >= 1
Cover_12: X13 + X2 + X6 + X7 + X8 >= 1
Cover_13: X12 + X13 + X2 + X8 + X9 >= 1
Cover_14: X12 + X13 + X16 + X8 + X9 >= 1
Cover_15: X12 + X13 + X16 + X2 + X6 + X7 + X8 + X9 >= 1
Cover_16: X13 + X8 >= 1
Cover_17: X6 + X7 >= 1
Cover_18: X12 + X2 + X6 + X7 + X9 >= 1
Cover_19: X13 + X2 + X6 + X7 + X8 >= 1
Cover_2: X12 + X13 + X16 + X2 + X6 + X7 + X8 + X9 >= 1
Cover_20: X12 + X13 + X6 + X7 + X8 + X9 >= 1
Cover_21: X12 + X9 >= 1
Cover_22: X2 >= 1
Cover_23: X12 + X13 + X2 + X8 + X9 >= 1
Cover_24: X12 + X13 + X16 + X2 + X6 + X7 + X8 + X9 >= 1
Cover_25: X12 + X16 + X2 + X9 >= 1
Cover_26: X16 >= 1
Cover_27: X12 + X13 + X16 + X8 + X9 >= 1
Cover_28: X12 + X13 + X16 + X8 + X9 >= 1
Cover_29: X12 + X16 + X6 + X7 + X9 >= 1
Cover_3: X12 + X13 + X16 + X8 + X9 >= 1
Cover_30: X16 + X2 + X6 + X7 >= 1
Cover_31: X12 + X13 + X16 + X2 + X6 + X7 + X8 + X9 >= 1
Cover_4: X6 + X7 >= 1
Cover_5: X12 + X9 >= 1
Cover_6: X12 + X16 + X2 + X9 >= 1
Cover_7: X12 + X16 + X6 + X7 + X9 >= 1
Cover_8: X12 + X2 + X6 + X7 + X9 >= 1
Cover_9: X2 >= 1
Binaries
X0
X1
X10
X11
X12
X13
X14
X15
X16
X17
X18
X19
X2
X3
X4
X5
X6
X7
X8
X9
End
